Problem:    uc_quadratic2
Rows:       62
Columns:    40 (10 integer, 10 binary)
Non-zeros:  190
Status:     INTEGER OPTIMAL
Objective:  obj = 136.75 (MINimum)

   No.   Row name        Activity     Lower bound   Upper bound
------ ------------    ------------- ------------- -------------
     1 obj                    136.75                             
     2 sqc_[1]                   441            -0               
     3 sqc_[2]                   225            -0               
     4 sqc_[3]                     0            -0               
     5 sqc_[4]                     0            -0               
     6 sqc_[5]                    81            -0               
     7 sqc_[6]                   375            -0               
     8 sqc_[7]                     0            -0               
     9 sqc_[8]                     0            -0               
    10 sqc_[9]                     0            -0               
    11 sqc_[10]                    0            -0               
    12 sqc__[1]                    0            -0               
    13 sqc__[2]                    0            -0               
    14 sqc__[3]                    0            -0               
    15 sqc__[4]                    0            -0               
    16 sqc__[5]                    0            -0               
    17 sqc__[6]                    0            -0               
    18 sqc__[7]                    0            -0               
    19 sqc__[8]                    0            -0               
    20 sqc__[9]                    0            -0               
    21 sqc__[10]                   0            -0               
    22 sqc___[1]                   0                          -0 
    23 sqc___[2]                   0                          -0 
    24 sqc___[3]                   0                          -0 
    25 sqc___[4]                   0                          -0 
    26 sqc___[5]                   0                          -0 
    27 sqc___[6]                -125                          -0 
    28 sqc___[7]                   0                          -0 
    29 sqc___[8]                   0                          -0 
    30 sqc___[9]                   0                          -0 
    31 sqc___[10]                  0                          -0 
    32 ccost[1]                    0            -0             = 
    33 ccost[2]                    0            -0             = 
    34 ccost[3]                    0            -0             = 
    35 ccost[4]                    0            -0             = 
    36 ccost[5]                    0            -0             = 
    37 ccost[6]                    0            -0             = 
    38 ccost[7]                    0            -0             = 
    39 ccost[8]                    0            -0             = 
    40 ccost[9]                    0            -0             = 
    41 ccost[10]                   0            -0             = 
    42 cdemand                   100           100             = 
    43 cprod[1]                  -21                          -0 
    44 cprod[2]                  -15                          -0 
    45 cprod[3]                    0                          -0 
    46 cprod[4]                    0                          -0 
    47 cprod[5]                   -9                          -0 
    48 cprod[6]                  -20                          -0 
    49 cprod[7]                    0                          -0 
    50 cprod[8]                    0                          -0 
    51 cprod[9]                    0                          -0 
    52 cprod[10]                   0                          -0 
    53 cprod_[1]                   0                          -0 
    54 cprod_[2]                   0                          -0 
    55 cprod_[3]                   0                          -0 
    56 cprod_[4]                   0                          -0 
    57 cprod_[5]                   0                          -0 
    58 cprod_[6]                  -5                          -0 
    59 cprod_[7]                   0                          -0 
    60 cprod_[8]                   0                          -0 
    61 cprod_[9]                   0                          -0 
    62 cprod_[10]                  0                          -0 

   No. Column name       Activity     Lower bound   Upper bound
------ ------------    ------------- ------------- -------------
     1 x[1]         *              1             0             1 
     2 x[2]         *              1             0             1 
     3 x[3]         *              0             0             1 
     4 x[4]         *              0             0             1 
     5 x[5]         *              1             0             1 
     6 x[6]         *              1             0             1 
     7 x[7]         *              0             0             1 
     8 x[8]         *              0             0             1 
     9 x[9]         *              0             0             1 
    10 x[10]        *              0             0             1 
    11 cost[1]                 13.75                             
    12 cost[2]                    15                             
    13 cost[3]                     0                             
    14 cost[4]                     0                             
    15 cost[5]                    24                             
    16 cost[6]                    84                             
    17 cost[7]                     0                             
    18 cost[8]                     0                             
    19 cost[9]                     0                             
    20 cost[10]                    0                             
    21 prod[1]                    25                             
    22 prod[2]                    20                             
    23 prod[3]                     0                             
    24 prod[4]                     0                             
    25 prod[5]                    10                             
    26 prod[6]                    45                             
    27 prod[7]                     0                             
    28 prod[8]                     0                             
    29 prod[9]                     0                             
    30 prod[10]                    0                             
    31 sq_prod[1]                625             0               
    32 sq_prod[2]                400             0               
    33 sq_prod[3]                  0             0               
    34 sq_prod[4]                  0             0               
    35 sq_prod[5]                100             0               
    36 sq_prod[6]               2000             0               
    37 sq_prod[7]                  0             0               
    38 sq_prod[8]                  0             0               
    39 sq_prod[9]                  0             0               
    40 sq_prod[10]                 0             0               

Integer feasibility conditions:

KKT.PE: max.abs.err = 0.00e+00 on row 0
        max.rel.err = 0.00e+00 on row 0
        High quality

KKT.PB: max.abs.err = 0.00e+00 on row 0
        max.rel.err = 0.00e+00 on row 0
        High quality

End of output
